W=8;
H=8;

% smaller MAX_TIME will make the decoy go to the target but limited by MAX_TIME -> wrong answer
MAX_TIME=18;
MAX_TRACKS=18;

TARGET=(5,8);

TRAINS=[(4,4,RIGHT)];
DECOYS=[(2,4,RIGHT),(4,6,DOWN),(4,2,TOP),(8,3,RIGHT)];

INIT_POS=[
(2,2,CORNER_DR),
(2,3,DSWITCH_L_R_T),
(2,4,STRAIGHT_RL),
(2,5,SWITCH_L_R_D),
(2,6,CORNER_DL),
(3,2,STRAIGHT_TD),
(3,6,DSWITCH_T_D_R),
(4,2,STRAIGHT_TD),
(4,4,STRAIGHT_RL),
(4,6,STRAIGHT_TD),
(5,2,DSWITCH_D_T_L),
(5,6,SWITCH_T_D_L),
(5,8,STRAIGHT_RL),
(6,2,CORNER_TR),
(6,3,SWITCH_R_L_T),
(6,4,STRAIGHT_RL),
(6,5,DSWITCH_R_L_D),
(6,6,CORNER_TL),
(8,3,STRAIGHT_RL),
(8,7,SWITCH_R_L_T),
];
TUNNEL_PAIRS=[];

GATES=[];
ACTIVATIONS=[
(8,7,1),
];

DSWITCHES=[
(2,3,1),
(3,6,1),
(5,2,1),
(6,5,1),
];
STATIONS=[];

SEMAPHORE_SUPPLY=0;
